p cnf 748 2810
1 2 3 4 0
-1 -2 0
-1 -3 0
-1 -4 0
-2 -3 0
-2 -4 0
-3 -4 0
5 -6 -7 0
6 -5 -7 0
-5 -6 7 0
6 5 7 0
-1 -7 0
6 -5 -8 0
5 -6 -8 0
8 -6 -5 0
8 6 5 0
-2 8 0
-3 8 0
-4 8 0
9 -10 -11 0
10 -9 -11 0
-9 -10 11 0
10 9 11 0
-1 -11 0
10 -12 -13 0
12 -10 -13 0
13 -10 -12 0
13 10 12 0
-2 13 0
-5 14 0
-9 14 0
-12 14 0
5 9 12 -14 0
10 -14 -15 0
-10 14 -15 0
-10 -14 15 0
10 14 15 0
-3 15 0
5 16 0
9 16 0
12 16 0
-5 -9 -12 -16 0
-10 16 -17 0
10 -16 -17 0
17 -16 -10 0
10 16 17 0
-4 -17 0
12 -18 -19 0
18 -12 -19 0
-12 -18 19 0
12 18 19 0
-1 -19 0
-5 18 -20 0
5 -18 -20 0
20 -18 -5 0
20 18 5 0
-2 20 0
-5 21 0
-12 21 0
5 12 -21 0
18 -21 -22 0
-18 21 -22 0
-18 -21 22 0
18 21 22 0
-3 22 0
5 23 0
12 23 0
-5 -12 -23 0
-18 23 -24 0
18 -23 -24 0
24 -23 -18 0
18 23 24 0
-4 -24 0
25 -26 -27 0
26 -25 -27 0
-25 -26 27 0
26 25 27 0
-1 -27 0
26 -28 -29 0
28 -26 -29 0
29 -26 -28 0
29 26 28 0
-2 29 0
-25 30 0
-28 30 0
-31 30 0
25 28 31 -30 0
26 -30 -32 0
-26 30 -32 0
-26 -30 32 0
26 30 32 0
-3 32 0
25 33 0
28 33 0
31 33 0
-25 -28 -31 -33 0
-26 33 -34 0
26 -33 -34 0
34 -33 -26 0
26 33 34 0
-4 -34 0
28 -35 -36 0
35 -28 -36 0
-28 -35 36 0
28 35 36 0
-1 -36 0
35 -31 -37 0
31 -35 -37 0
37 -35 -31 0
37 35 31 0
-2 37 0
35 -30 -38 0
30 -35 -38 0
-30 -35 38 0
35 30 38 0
-3 38 0
33 -35 -39 0
35 -33 -39 0
39 -33 -35 0
35 33 39 0
-4 -39 0
31 -40 -41 0
40 -31 -41 0
-31 -40 41 0
31 40 41 0
-1 -41 0
-25 40 -42 0
25 -40 -42 0
42 -40 -25 0
42 40 25 0
-2 42 0
40 -30 -43 0
30 -40 -43 0
-30 -40 43 0
40 30 43 0
-3 43 0
33 -40 -44 0
40 -33 -44 0
44 -33 -40 0
40 33 44 0
-4 -44 0
45 -46 -47 0
46 -45 -47 0
-45 -46 47 0
46 45 47 0
-1 -47 0
-31 46 -48 0
31 -46 -48 0
48 -46 -31 0
48 46 31 0
-2 48 0
-25 49 0
-28 49 0
-31 49 0
-45 49 0
25 28 31 45 -49 0
46 -49 -50 0
-46 49 -50 0
-46 -49 50 0
46 49 50 0
-3 50 0
25 51 0
28 51 0
31 51 0
45 51 0
-52 0
-46 51 -53 0
46 -51 -53 0
53 -51 -46 0
46 51 53 0
-4 -53 0
54 -55 -56 0
55 -54 -56 0
-54 -55 56 0
55 54 56 0
-1 -56 0
55 -57 -58 0
57 -55 -58 0
58 -55 -57 0
58 55 57 0
-2 58 0
-54 59 0
-57 59 0
-60 59 0
-61 59 0
54 57 60 61 -59 0
55 -59 -62 0
-55 59 -62 0
-55 -59 62 0
55 59 62 0
-3 62 0
54 63 0
57 63 0
60 63 0
61 63 0
-64 0
-55 63 -65 0
55 -63 -65 0
65 -63 -55 0
55 63 65 0
-4 -65 0
57 -66 -67 0
66 -57 -67 0
-57 -66 67 0
57 66 67 0
-1 -67 0
66 -60 -68 0
60 -66 -68 0
68 -66 -60 0
68 66 60 0
-2 68 0
-57 69 0
-60 69 0
-61 69 0
57 60 61 -69 0
66 -69 -70 0
-66 69 -70 0
-66 -69 70 0
66 69 70 0
-3 70 0
57 71 0
60 71 0
61 71 0
-57 -60 -61 -71 0
-66 71 -72 0
66 -71 -72 0
72 -71 -66 0
66 71 72 0
-4 -72 0
60 -73 -74 0
73 -60 -74 0
-60 -73 74 0
60 73 74 0
-1 -74 0
73 -61 -75 0
61 -73 -75 0
75 -73 -61 0
75 73 61 0
-2 75 0
-60 76 0
-61 76 0
60 61 -76 0
73 -76 -77 0
-73 76 -77 0
-73 -76 77 0
73 76 77 0
-3 77 0
60 78 0
61 78 0
-60 -61 -78 0
-73 78 -79 0
73 -78 -79 0
79 -78 -73 0
73 78 79 0
-4 -79 0
61 -80 -81 0
80 -61 -81 0
-61 -80 81 0
61 80 81 0
-1 -81 0
-60 80 -82 0
60 -80 -82 0
82 -80 -60 0
82 80 60 0
-2 82 0
-61 83 0
-60 83 0
61 60 -83 0
80 -83 -84 0
-80 83 -84 0
-80 -83 84 0
80 83 84 0
-3 84 0
61 85 0
60 85 0
-60 -61 -85 0
-80 85 -86 0
80 -85 -86 0
86 -85 -80 0
80 85 86 0
-4 -86 0
87 -88 -89 0
88 -87 -89 0
-87 -88 89 0
88 87 89 0
-1 -89 0
88 -90 -91 0
90 -88 -91 0
91 -88 -90 0
91 88 90 0
-2 91 0
-87 92 0
-90 92 0
-93 92 0
-94 92 0
-95 92 0
-96 92 0
-97 92 0
-98 92 0
99 0
88 -92 -100 0
-88 92 -100 0
-88 -92 100 0
88 92 100 0
-3 100 0
87 101 0
90 101 0
93 101 0
94 101 0
95 101 0
96 101 0
97 101 0
98 101 0
-102 0
-88 101 -103 0
88 -101 -103 0
103 -101 -88 0
88 101 103 0
-4 -103 0
90 -104 -105 0
104 -90 -105 0
-90 -104 105 0
90 104 105 0
-1 -105 0
104 -93 -106 0
93 -104 -106 0
106 -104 -93 0
106 104 93 0
-2 106 0
-90 107 0
-93 107 0
-94 107 0
-95 107 0
-96 107 0
-97 107 0
-98 107 0
108 0
104 -107 -109 0
-104 107 -109 0
-104 -107 109 0
104 107 109 0
-3 109 0
90 110 0
93 110 0
94 110 0
95 110 0
96 110 0
97 110 0
98 110 0
-111 0
-104 110 -112 0
104 -110 -112 0
112 -110 -104 0
104 110 112 0
-4 -112 0
93 -113 -114 0
113 -93 -114 0
-93 -113 114 0
93 113 114 0
-1 -114 0
113 -94 -115 0
94 -113 -115 0
115 -113 -94 0
115 113 94 0
-2 115 0
-93 116 0
-94 116 0
-95 116 0
-96 116 0
-97 116 0
-98 116 0
117 0
113 -116 -118 0
-113 116 -118 0
-113 -116 118 0
113 116 118 0
-3 118 0
93 119 0
94 119 0
95 119 0
96 119 0
97 119 0
98 119 0
-120 0
-113 119 -121 0
113 -119 -121 0
121 -119 -113 0
113 119 121 0
-4 -121 0
94 -122 -123 0
122 -94 -123 0
-94 -122 123 0
94 122 123 0
-1 -123 0
122 -95 -124 0
95 -122 -124 0
124 -122 -95 0
124 122 95 0
-2 124 0
-94 125 0
-95 125 0
-96 125 0
-97 125 0
-98 125 0
94 95 96 97 98 -125 0
122 -125 -126 0
-122 125 -126 0
-122 -125 126 0
122 125 126 0
-3 126 0
94 127 0
95 127 0
96 127 0
97 127 0
98 127 0
-128 0
-122 127 -129 0
122 -127 -129 0
129 -127 -122 0
122 127 129 0
-4 -129 0
95 -130 -131 0
130 -95 -131 0
-95 -130 131 0
95 130 131 0
-1 -131 0
130 -96 -132 0
96 -130 -132 0
132 -130 -96 0
132 130 96 0
-2 132 0
-95 133 0
-96 133 0
-97 133 0
-98 133 0
95 96 97 98 -133 0
130 -133 -134 0
-130 133 -134 0
-130 -133 134 0
130 133 134 0
-3 134 0
95 135 0
96 135 0
97 135 0
98 135 0
-136 0
-130 135 -137 0
130 -135 -137 0
137 -135 -130 0
130 135 137 0
-4 -137 0
96 -138 -139 0
138 -96 -139 0
-96 -138 139 0
96 138 139 0
-1 -139 0
138 -97 -140 0
97 -138 -140 0
140 -138 -97 0
140 138 97 0
-2 140 0
138 -133 -141 0
133 -138 -141 0
-133 -138 141 0
138 133 141 0
-3 141 0
135 -138 -142 0
138 -135 -142 0
142 -135 -138 0
138 135 142 0
-4 -142 0
97 -143 -144 0
143 -97 -144 0
-97 -143 144 0
97 143 144 0
-1 -144 0
143 -98 -145 0
98 -143 -145 0
145 -143 -98 0
145 143 98 0
-2 145 0
143 -133 -146 0
133 -143 -146 0
-133 -143 146 0
143 133 146 0
-3 146 0
135 -143 -147 0
143 -135 -147 0
147 -135 -143 0
143 135 147 0
-4 -147 0
98 -148 -149 0
148 -98 -149 0
-98 -148 149 0
98 148 149 0
-1 -149 0
-95 148 -150 0
95 -148 -150 0
150 -148 -95 0
150 148 95 0
-2 150 0
148 -133 -151 0
133 -148 -151 0
-133 -148 151 0
148 133 151 0
-3 151 0
135 -148 -152 0
148 -135 -152 0
152 -135 -148 0
148 135 152 0
-4 -152 0
153 -154 -155 0
154 -153 -155 0
-153 -154 155 0
154 153 155 0
-1 -155 0
154 -156 -157 0
156 -154 -157 0
157 -154 -156 0
157 154 156 0
-2 157 0
-95 158 0
-96 158 0
-97 158 0
-98 158 0
-153 158 0
-156 158 0
159 0
154 -158 -160 0
-154 158 -160 0
-154 -158 160 0
154 158 160 0
-3 160 0
95 161 0
96 161 0
97 161 0
98 161 0
153 161 0
156 161 0
-162 0
-154 161 -163 0
154 -161 -163 0
163 -161 -154 0
154 161 163 0
-4 -163 0
156 -164 -165 0
164 -156 -165 0
-156 -164 165 0
156 164 165 0
-1 -165 0
-96 164 -166 0
96 -164 -166 0
166 -164 -96 0
166 164 96 0
-2 166 0
-95 167 0
-96 167 0
-97 167 0
-98 167 0
-156 167 0
95 96 97 98 156 -167 0
164 -167 -168 0
-164 167 -168 0
-164 -167 168 0
164 167 168 0
-3 168 0
95 169 0
96 169 0
97 169 0
98 169 0
156 169 0
-170 0
-164 169 -171 0
164 -169 -171 0
171 -169 -164 0
164 169 171 0
-4 -171 0
172 -173 -174 0
173 -172 -174 0
-172 -173 174 0
173 172 174 0
-1 -174 0
173 -175 -176 0
175 -173 -176 0
176 -173 -175 0
176 173 175 0
-2 176 0
-172 177 0
-175 177 0
-178 177 0
-179 177 0
-180 177 0
-181 177 0
-182 177 0
183 0
173 -177 -184 0
-173 177 -184 0
-173 -177 184 0
173 177 184 0
-3 184 0
172 185 0
175 185 0
178 185 0
179 185 0
180 185 0
181 185 0
182 185 0
-186 0
-173 185 -187 0
173 -185 -187 0
187 -185 -173 0
173 185 187 0
-4 -187 0
175 -188 -189 0
188 -175 -189 0
-175 -188 189 0
175 188 189 0
-1 -189 0
188 -178 -190 0
178 -188 -190 0
190 -188 -178 0
190 188 178 0
-2 190 0
-175 191 0
-178 191 0
-179 191 0
-180 191 0
-181 191 0
-182 191 0
192 0
188 -191 -193 0
-188 191 -193 0
-188 -191 193 0
188 191 193 0
-3 193 0
175 194 0
178 194 0
179 194 0
180 194 0
181 194 0
182 194 0
-195 0
-188 194 -196 0
188 -194 -196 0
196 -194 -188 0
188 194 196 0
-4 -196 0
178 -197 -198 0
197 -178 -198 0
-178 -197 198 0
178 197 198 0
-1 -198 0
197 -179 -199 0
179 -197 -199 0
199 -197 -179 0
199 197 179 0
-2 199 0
-178 200 0
-179 200 0
-180 200 0
-181 200 0
-182 200 0
178 179 180 181 182 -200 0
197 -200 -201 0
-197 200 -201 0
-197 -200 201 0
197 200 201 0
-3 201 0
178 202 0
179 202 0
180 202 0
181 202 0
182 202 0
-203 0
-197 202 -204 0
197 -202 -204 0
204 -202 -197 0
197 202 204 0
-4 -204 0
179 -205 -206 0
205 -179 -206 0
-179 -205 206 0
179 205 206 0
-1 -206 0
205 -180 -207 0
180 -205 -207 0
207 -205 -180 0
207 205 180 0
-2 207 0
-179 208 0
-180 208 0
-181 208 0
-182 208 0
179 180 181 182 -208 0
205 -208 -209 0
-205 208 -209 0
-205 -208 209 0
205 208 209 0
-3 209 0
179 210 0
180 210 0
181 210 0
182 210 0
-211 0
-205 210 -212 0
205 -210 -212 0
212 -210 -205 0
205 210 212 0
-4 -212 0
180 -213 -214 0
213 -180 -214 0
-180 -213 214 0
180 213 214 0
-1 -214 0
213 -181 -215 0
181 -213 -215 0
215 -213 -181 0
215 213 181 0
-2 215 0
213 -208 -216 0
208 -213 -216 0
-208 -213 216 0
213 208 216 0
-3 216 0
210 -213 -217 0
213 -210 -217 0
217 -210 -213 0
213 210 217 0
-4 -217 0
181 -218 -219 0
218 -181 -219 0
-181 -218 219 0
181 218 219 0
-1 -219 0
218 -182 -220 0
182 -218 -220 0
220 -218 -182 0
220 218 182 0
-2 220 0
218 -208 -221 0
208 -218 -221 0
-208 -218 221 0
218 208 221 0
-3 221 0
210 -218 -222 0
218 -210 -222 0
222 -210 -218 0
218 210 222 0
-4 -222 0
182 -223 -224 0
223 -182 -224 0
-182 -223 224 0
182 223 224 0
-1 -224 0
-179 223 -225 0
179 -223 -225 0
225 -223 -179 0
225 223 179 0
-2 225 0
223 -208 -226 0
208 -223 -226 0
-208 -223 226 0
223 208 226 0
-3 226 0
210 -223 -227 0
223 -210 -227 0
227 -210 -223 0
223 210 227 0
-4 -227 0
228 -229 -230 0
229 -228 -230 0
-228 -229 230 0
229 228 230 0
-1 -230 0
229 -231 -232 0
231 -229 -232 0
232 -229 -231 0
232 229 231 0
-2 232 0
-228 233 0
-231 233 0
228 231 -233 0
229 -233 -234 0
-229 233 -234 0
-229 -233 234 0
229 233 234 0
-3 234 0
228 235 0
231 235 0
-228 -231 -235 0
-229 235 -236 0
229 -235 -236 0
236 -235 -229 0
229 235 236 0
-4 -236 0
231 -237 -238 0
237 -231 -238 0
-231 -237 238 0
231 237 238 0
-1 -238 0
237 -231 -239 0
231 -237 -239 0
239 -237 -231 0
239 237 231 0
-2 239 0
-3 239 0
-4 239 0
240 -241 -242 0
241 -240 -242 0
-240 -241 242 0
241 240 242 0
-1 -242 0
-153 241 -243 0
153 -241 -243 0
243 -241 -153 0
243 241 153 0
-2 243 0
-95 244 0
-96 244 0
-97 244 0
-98 244 0
-153 244 0
-156 244 0
-240 244 0
245 0
241 -244 -246 0
-241 244 -246 0
-241 -244 246 0
241 244 246 0
-3 246 0
95 247 0
96 247 0
97 247 0
98 247 0
153 247 0
156 247 0
240 247 0
-248 0
-241 247 -249 0
241 -247 -249 0
249 -247 -241 0
241 247 249 0
-4 -249 0
250 -251 -252 0
251 -250 -252 0
-250 -251 252 0
251 250 252 0
-1 -252 0
251 -253 -254 0
253 -251 -254 0
254 -251 -253 0
254 251 253 0
-2 254 0
-228 255 0
-231 255 0
-250 255 0
-253 255 0
228 231 250 253 -255 0
251 -255 -256 0
-251 255 -256 0
-251 -255 256 0
251 255 256 0
-3 256 0
228 257 0
231 257 0
250 257 0
253 257 0
-258 0
-251 257 -259 0
251 -257 -259 0
259 -257 -251 0
251 257 259 0
-4 -259 0
253 -260 -261 0
260 -253 -261 0
-253 -260 261 0
253 260 261 0
-1 -261 0
-228 260 -262 0
228 -260 -262 0
262 -260 -228 0
262 260 228 0
-2 262 0
-228 263 0
-231 263 0
-253 263 0
228 231 253 -263 0
260 -263 -264 0
-260 263 -264 0
-260 -263 264 0
260 263 264 0
-3 264 0
228 265 0
231 265 0
253 265 0
-228 -231 -253 -265 0
-260 265 -266 0
260 -265 -266 0
266 -265 -260 0
260 265 266 0
-4 -266 0
267 -268 -269 0
268 -267 -269 0
-267 -268 269 0
268 267 269 0
-1 -269 0
268 -270 -271 0
270 -268 -271 0
271 -268 -270 0
271 268 270 0
-2 271 0
-179 272 0
-180 272 0
-181 272 0
-182 272 0
-267 272 0
-270 272 0
273 0
268 -272 -274 0
-268 272 -274 0
-268 -272 274 0
268 272 274 0
-3 274 0
179 275 0
180 275 0
181 275 0
182 275 0
267 275 0
270 275 0
-276 0
-268 275 -277 0
268 -275 -277 0
277 -275 -268 0
268 275 277 0
-4 -277 0
270 -278 -279 0
278 -270 -279 0
-270 -278 279 0
270 278 279 0
-1 -279 0
-180 278 -280 0
180 -278 -280 0
280 -278 -180 0
280 278 180 0
-2 280 0
-179 281 0
-180 281 0
-181 281 0
-182 281 0
-270 281 0
179 180 181 182 270 -281 0
278 -281 -282 0
-278 281 -282 0
-278 -281 282 0
278 281 282 0
-3 282 0
179 283 0
180 283 0
181 283 0
182 283 0
270 283 0
-284 0
-278 283 -285 0
278 -283 -285 0
285 -283 -278 0
278 283 285 0
-4 -285 0
286 -287 -288 0
287 -286 -288 0
-286 -287 288 0
287 286 288 0
-1 -288 0
-54 287 -289 0
54 -287 -289 0
289 -287 -54 0
289 287 54 0
-2 289 0
-54 290 0
-57 290 0
-60 290 0
-61 290 0
-286 290 0
54 57 60 61 286 -290 0
287 -290 -291 0
-287 290 -291 0
-287 -290 291 0
287 290 291 0
-3 291 0
54 292 0
57 292 0
60 292 0
61 292 0
286 292 0
-293 0
-287 292 -294 0
287 -292 -294 0
294 -292 -287 0
287 292 294 0
-4 -294 0
295 -296 -297 0
296 -295 -297 0
-295 -296 297 0
296 295 297 0
-1 -297 0
-97 296 -298 0
97 -296 -298 0
298 -296 -97 0
298 296 97 0
-2 298 0
-95 299 0
-96 299 0
-97 299 0
-98 299 0
-295 299 0
95 96 97 98 295 -299 0
296 -299 -300 0
-296 299 -300 0
-296 -299 300 0
296 299 300 0
-3 300 0
95 301 0
96 301 0
97 301 0
98 301 0
295 301 0
-302 0
-296 301 -303 0
296 -301 -303 0
303 -301 -296 0
296 301 303 0
-4 -303 0
304 -305 -306 0
305 -304 -306 0
-304 -305 306 0
305 304 306 0
-1 -306 0
305 -307 -308 0
307 -305 -308 0
308 -305 -307 0
308 305 307 0
-2 308 0
-95 309 0
-96 309 0
-97 309 0
-98 309 0
-156 309 0
-304 309 0
-307 309 0
310 0
305 -309 -311 0
-305 309 -311 0
-305 -309 311 0
305 309 311 0
-3 311 0
95 312 0
96 312 0
97 312 0
98 312 0
156 312 0
304 312 0
307 312 0
-313 0
-305 312 -314 0
305 -312 -314 0
314 -312 -305 0
305 312 314 0
-4 -314 0
307 -315 -316 0
315 -307 -316 0
-307 -315 316 0
307 315 316 0
-1 -316 0
-156 315 -317 0
156 -315 -317 0
317 -315 -156 0
317 315 156 0
-2 317 0
-95 318 0
-96 318 0
-97 318 0
-98 318 0
-156 318 0
-307 318 0
319 0
315 -318 -320 0
-315 318 -320 0
-315 -318 320 0
315 318 320 0
-3 320 0
95 321 0
96 321 0
97 321 0
98 321 0
156 321 0
307 321 0
-322 0
-315 321 -323 0
315 -321 -323 0
323 -321 -315 0
315 321 323 0
-4 -323 0
324 -325 -326 0
325 -324 -326 0
-324 -325 326 0
325 324 326 0
-1 -326 0
325 -327 -328 0
327 -325 -328 0
328 -325 -327 0
328 325 327 0
-2 328 0
-25 329 0
-28 329 0
-31 329 0
-45 329 0
-324 329 0
-327 329 0
-330 329 0
331 0
325 -329 -332 0
-325 329 -332 0
-325 -329 332 0
325 329 332 0
-3 332 0
25 333 0
28 333 0
31 333 0
45 333 0
324 333 0
327 333 0
330 333 0
-334 0
-325 333 -335 0
325 -333 -335 0
335 -333 -325 0
325 333 335 0
-4 -335 0
327 -336 -337 0
336 -327 -337 0
-327 -336 337 0
327 336 337 0
-1 -337 0
336 -330 -338 0
330 -336 -338 0
338 -336 -330 0
338 336 330 0
-2 338 0
-25 339 0
-28 339 0
-31 339 0
-45 339 0
-327 339 0
-330 339 0
25 28 31 45 327 330 -339 0
336 -339 -340 0
-336 339 -340 0
-336 -339 340 0
336 339 340 0
-3 340 0
25 341 0
28 341 0
31 341 0
45 341 0
327 341 0
330 341 0
-342 0
-336 341 -343 0
336 -341 -343 0
343 -341 -336 0
336 341 343 0
-4 -343 0
330 -344 -345 0
344 -330 -345 0
-330 -344 345 0
330 344 345 0
-1 -345 0
-45 344 -346 0
45 -344 -346 0
346 -344 -45 0
346 344 45 0
-2 346 0
-25 347 0
-28 347 0
-31 347 0
-45 347 0
-330 347 0
25 28 31 45 330 -347 0
344 -347 -348 0
-344 347 -348 0
-344 -347 348 0
344 347 348 0
-3 348 0
25 349 0
28 349 0
31 349 0
45 349 0
330 349 0
-350 0
-344 349 -351 0
344 -349 -351 0
351 -349 -344 0
344 349 351 0
-4 -351 0
352 -353 -354 0
353 -352 -354 0
-352 -353 354 0
353 352 354 0
-1 -354 0
-57 353 -355 0
57 -353 -355 0
355 -353 -57 0
355 353 57 0
-2 355 0
-57 356 0
-60 356 0
-61 356 0
-352 356 0
57 60 61 352 -356 0
353 -356 -357 0
-353 356 -357 0
-353 -356 357 0
353 356 357 0
-3 357 0
57 358 0
60 358 0
61 358 0
352 358 0
-359 0
-353 358 -360 0
353 -358 -360 0
360 -358 -353 0
353 358 360 0
-4 -360 0
361 -362 -363 0
362 -361 -363 0
-361 -362 363 0
362 361 363 0
-1 -363 0
362 -364 -365 0
364 -362 -365 0
365 -362 -364 0
365 362 364 0
-2 365 0
-361 366 0
-364 366 0
-367 366 0
-368 366 0
-369 366 0
-370 366 0
-371 366 0
372 0
362 -366 -373 0
-362 366 -373 0
-362 -366 373 0
362 366 373 0
-3 373 0
361 374 0
364 374 0
367 374 0
368 374 0
369 374 0
370 374 0
371 374 0
-375 0
-362 374 -376 0
362 -374 -376 0
376 -374 -362 0
362 374 376 0
-4 -376 0
364 -377 -378 0
377 -364 -378 0
-364 -377 378 0
364 377 378 0
-1 -378 0
377 -367 -379 0
367 -377 -379 0
379 -377 -367 0
379 377 367 0
-2 379 0
-364 380 0
-367 380 0
-368 380 0
-369 380 0
-370 380 0
-371 380 0
381 0
377 -380 -382 0
-377 380 -382 0
-377 -380 382 0
377 380 382 0
-3 382 0
364 383 0
367 383 0
368 383 0
369 383 0
370 383 0
371 383 0
-384 0
-377 383 -385 0
377 -383 -385 0
385 -383 -377 0
377 383 385 0
-4 -385 0
367 -386 -387 0
386 -367 -387 0
-367 -386 387 0
367 386 387 0
-1 -387 0
386 -368 -388 0
368 -386 -388 0
388 -386 -368 0
388 386 368 0
-2 388 0
-367 389 0
-368 389 0
-369 389 0
-370 389 0
-371 389 0
367 368 369 370 371 -389 0
386 -389 -390 0
-386 389 -390 0
-386 -389 390 0
386 389 390 0
-3 390 0
367 391 0
368 391 0
369 391 0
370 391 0
371 391 0
-392 0
-386 391 -393 0
386 -391 -393 0
393 -391 -386 0
386 391 393 0
-4 -393 0
368 -394 -395 0
394 -368 -395 0
-368 -394 395 0
368 394 395 0
-1 -395 0
394 -369 -396 0
369 -394 -396 0
396 -394 -369 0
396 394 369 0
-2 396 0
-368 397 0
-369 397 0
-370 397 0
-371 397 0
368 369 370 371 -397 0
394 -397 -398 0
-394 397 -398 0
-394 -397 398 0
394 397 398 0
-3 398 0
368 399 0
369 399 0
370 399 0
371 399 0
-400 0
-394 399 -401 0
394 -399 -401 0
401 -399 -394 0
394 399 401 0
-4 -401 0
369 -402 -403 0
402 -369 -403 0
-369 -402 403 0
369 402 403 0
-1 -403 0
402 -370 -404 0
370 -402 -404 0
404 -402 -370 0
404 402 370 0
-2 404 0
-369 405 0
-370 405 0
-371 405 0
369 370 371 -405 0
402 -405 -406 0
-402 405 -406 0
-402 -405 406 0
402 405 406 0
-3 406 0
369 407 0
370 407 0
371 407 0
-369 -370 -371 -407 0
-402 407 -408 0
402 -407 -408 0
408 -407 -402 0
402 407 408 0
-4 -408 0
370 -409 -410 0
409 -370 -410 0
-370 -409 410 0
370 409 410 0
-1 -410 0
409 -371 -411 0
371 -409 -411 0
411 -409 -371 0
411 409 371 0
-2 411 0
409 -405 -412 0
405 -409 -412 0
-405 -409 412 0
409 405 412 0
-3 412 0
407 -409 -413 0
409 -407 -413 0
413 -407 -409 0
409 407 413 0
-4 -413 0
371 -414 -415 0
414 -371 -415 0
-371 -414 415 0
371 414 415 0
-1 -415 0
-369 414 -416 0
369 -414 -416 0
416 -414 -369 0
416 414 369 0
-2 416 0
414 -405 -417 0
405 -414 -417 0
-405 -414 417 0
414 405 417 0
-3 417 0
407 -414 -418 0
414 -407 -418 0
418 -407 -414 0
414 407 418 0
-4 -418 0
419 -420 -421 0
420 -419 -421 0
-419 -420 421 0
420 419 421 0
-1 -421 0
420 -422 -423 0
422 -420 -423 0
423 -420 -422 0
423 420 422 0
-2 423 0
-369 424 0
-370 424 0
-371 424 0
-419 424 0
-422 424 0
369 370 371 419 422 -424 0
420 -424 -425 0
-420 424 -425 0
-420 -424 425 0
420 424 425 0
-3 425 0
369 426 0
370 426 0
371 426 0
419 426 0
422 426 0
-427 0
-420 426 -428 0
420 -426 -428 0
428 -426 -420 0
420 426 428 0
-4 -428 0
422 -429 -430 0
429 -422 -430 0
-422 -429 430 0
422 429 430 0
-1 -430 0
-370 429 -431 0
370 -429 -431 0
431 -429 -370 0
431 429 370 0
-2 431 0
-369 432 0
-370 432 0
-371 432 0
-422 432 0
369 370 371 422 -432 0
429 -432 -433 0
-429 432 -433 0
-429 -432 433 0
429 432 433 0
-3 433 0
369 434 0
370 434 0
371 434 0
422 434 0
-435 0
-429 434 -436 0
429 -434 -436 0
436 -434 -429 0
429 434 436 0
-4 -436 0
437 -438 -439 0
438 -437 -439 0
-437 -438 439 0
438 437 439 0
-1 -439 0
438 -440 -441 0
440 -438 -441 0
441 -438 -440 0
441 438 440 0
-2 441 0
-57 442 0
-60 442 0
-61 442 0
-352 442 0
-437 442 0
-440 442 0
57 60 61 352 437 440 -442 0
438 -442 -443 0
-438 442 -443 0
-438 -442 443 0
438 442 443 0
-3 443 0
57 444 0
60 444 0
61 444 0
352 444 0
437 444 0
440 444 0
-445 0
-438 444 -446 0
438 -444 -446 0
446 -444 -438 0
438 444 446 0
-4 -446 0
440 -447 -448 0
447 -440 -448 0
-440 -447 448 0
440 447 448 0
-1 -448 0
-352 447 -449 0
352 -447 -449 0
449 -447 -352 0
449 447 352 0
-2 449 0
-57 450 0
-60 450 0
-61 450 0
-352 450 0
-440 450 0
57 60 61 352 440 -450 0
447 -450 -451 0
-447 450 -451 0
-447 -450 451 0
447 450 451 0
-3 451 0
57 452 0
60 452 0
61 452 0
352 452 0
440 452 0
-453 0
-447 452 -454 0
447 -452 -454 0
454 -452 -447 0
447 452 454 0
-4 -454 0
455 -456 -457 0
456 -455 -457 0
-455 -456 457 0
456 455 457 0
-1 -457 0
456 -458 -459 0
458 -456 -459 0
459 -456 -458 0
459 456 458 0
-2 459 0
-57 460 0
-60 460 0
-61 460 0
-352 460 0
-455 460 0
-458 460 0
57 60 61 352 455 458 -460 0
456 -460 -461 0
-456 460 -461 0
-456 -460 461 0
456 460 461 0
-3 461 0
57 462 0
60 462 0
61 462 0
352 462 0
455 462 0
458 462 0
-463 0
-456 462 -464 0
456 -462 -464 0
464 -462 -456 0
456 462 464 0
-4 -464 0
458 -465 -466 0
465 -458 -466 0
-458 -465 466 0
458 465 466 0
-1 -466 0
-352 465 -467 0
352 -465 -467 0
467 -465 -352 0
467 465 352 0
-2 467 0
-57 468 0
-60 468 0
-61 468 0
-352 468 0
-458 468 0
57 60 61 352 458 -468 0
465 -468 -469 0
-465 468 -469 0
-465 -468 469 0
465 468 469 0
-3 469 0
57 470 0
60 470 0
61 470 0
352 470 0
458 470 0
-471 0
-465 470 -472 0
465 -470 -472 0
472 -470 -465 0
465 470 472 0
-4 -472 0
473 -474 -475 0
474 -473 -475 0
-473 -474 475 0
474 473 475 0
-1 -475 0
474 -476 -477 0
476 -474 -477 0
477 -474 -476 0
477 474 476 0
-2 477 0
-25 478 0
-28 478 0
-31 478 0
-473 478 0
-476 478 0
25 28 31 473 476 -478 0
474 -478 -479 0
-474 478 -479 0
-474 -478 479 0
474 478 479 0
-3 479 0
25 480 0
28 480 0
31 480 0
473 480 0
476 480 0
-481 0
-474 480 -482 0
474 -480 -482 0
482 -480 -474 0
474 480 482 0
-4 -482 0
476 -483 -484 0
483 -476 -484 0
-476 -483 484 0
476 483 484 0
-1 -484 0
-28 483 -485 0
28 -483 -485 0
485 -483 -28 0
485 483 28 0
-2 485 0
-25 486 0
-28 486 0
-31 486 0
-476 486 0
25 28 31 476 -486 0
483 -486 -487 0
-483 486 -487 0
-483 -486 487 0
483 486 487 0
-3 487 0
25 488 0
28 488 0
31 488 0
476 488 0
-489 0
-483 488 -490 0
483 -488 -490 0
490 -488 -483 0
483 488 490 0
-4 -490 0
491 -492 -493 0
492 -491 -493 0
-491 -492 493 0
492 491 493 0
-1 -493 0
-458 492 -494 0
458 -492 -494 0
494 -492 -458 0
494 492 458 0
-2 494 0
-57 495 0
-60 495 0
-61 495 0
-352 495 0
-458 495 0
-491 495 0
57 60 61 352 458 491 -495 0
492 -495 -496 0
-492 495 -496 0
-492 -495 496 0
492 495 496 0
-3 496 0
57 497 0
60 497 0
61 497 0
352 497 0
458 497 0
491 497 0
-498 0
-492 497 -499 0
492 -497 -499 0
499 -497 -492 0
492 497 499 0
-4 -499 0
500 -501 -502 0
501 -500 -502 0
-500 -501 502 0
501 500 502 0
-1 -502 0
-9 501 -503 0
9 -501 -503 0
503 -501 -9 0
503 501 9 0
-2 503 0
-5 504 0
-9 504 0
-12 504 0
-500 504 0
5 9 12 500 -504 0
501 -504 -505 0
-501 504 -505 0
-501 -504 505 0
501 504 505 0
-3 505 0
5 506 0
9 506 0
12 506 0
500 506 0
-507 0
-501 506 -508 0
501 -506 -508 0
508 -506 -501 0
501 506 508 0
-4 -508 0
509 -510 -511 0
510 -509 -511 0
-509 -510 511 0
510 509 511 0
-1 -511 0
-9 510 -512 0
9 -510 -512 0
512 -510 -9 0
512 510 9 0
-2 512 0
-5 513 0
-9 513 0
-12 513 0
-509 513 0
5 9 12 509 -513 0
510 -513 -514 0
-510 513 -514 0
-510 -513 514 0
510 513 514 0
-3 514 0
5 515 0
9 515 0
12 515 0
509 515 0
-516 0
-510 515 -517 0
510 -515 -517 0
517 -515 -510 0
510 515 517 0
-4 -517 0
518 -519 -520 0
519 -518 -520 0
-518 -519 520 0
519 518 520 0
-1 -520 0
-509 519 -521 0
509 -519 -521 0
521 -519 -509 0
521 519 509 0
-2 521 0
-5 522 0
-9 522 0
-12 522 0
-509 522 0
-518 522 0
5 9 12 509 518 -522 0
519 -522 -523 0
-519 522 -523 0
-519 -522 523 0
519 522 523 0
-3 523 0
5 524 0
9 524 0
12 524 0
509 524 0
518 524 0
-525 0
-519 524 -526 0
519 -524 -526 0
526 -524 -519 0
519 524 526 0
-4 -526 0
527 -528 -529 0
528 -527 -529 0
-527 -528 529 0
528 527 529 0
-1 -529 0
528 -530 -531 0
530 -528 -531 0
531 -528 -530 0
531 528 530 0
-2 531 0
-179 532 0
-180 532 0
-181 532 0
-182 532 0
-527 532 0
-530 532 0
533 0
528 -532 -534 0
-528 532 -534 0
-528 -532 534 0
528 532 534 0
-3 534 0
179 535 0
180 535 0
181 535 0
182 535 0
527 535 0
530 535 0
-536 0
-528 535 -537 0
528 -535 -537 0
537 -535 -528 0
528 535 537 0
-4 -537 0
530 -538 -539 0
538 -530 -539 0
-530 -538 539 0
530 538 539 0
-1 -539 0
-182 538 -540 0
182 -538 -540 0
540 -538 -182 0
540 538 182 0
-2 540 0
-179 541 0
-180 541 0
-181 541 0
-182 541 0
-530 541 0
179 180 181 182 530 -541 0
538 -541 -542 0
-538 541 -542 0
-538 -541 542 0
538 541 542 0
-3 542 0
179 543 0
180 543 0
181 543 0
182 543 0
530 543 0
-544 0
-538 543 -545 0
538 -543 -545 0
545 -543 -538 0
538 543 545 0
-4 -545 0
546 -547 -548 0
547 -546 -548 0
-546 -547 548 0
547 546 548 0
-1 -548 0
547 -549 -550 0
549 -547 -550 0
550 -547 -549 0
550 547 549 0
-2 550 0
-5 551 0
-12 551 0
-546 551 0
-549 551 0
-552 551 0
5 12 546 549 552 -551 0
547 -551 -553 0
-547 551 -553 0
-547 -551 553 0
547 551 553 0
-3 553 0
5 554 0
12 554 0
546 554 0
549 554 0
552 554 0
-555 0
-547 554 -556 0
547 -554 -556 0
556 -554 -547 0
547 554 556 0
-4 -556 0
549 -557 -558 0
557 -549 -558 0
-549 -557 558 0
549 557 558 0
-1 -558 0
557 -552 -559 0
552 -557 -559 0
559 -557 -552 0
559 557 552 0
-2 559 0
-5 560 0
-12 560 0
-549 560 0
-552 560 0
5 12 549 552 -560 0
557 -560 -561 0
-557 560 -561 0
-557 -560 561 0
557 560 561 0
-3 561 0
5 562 0
12 562 0
549 562 0
552 562 0
-563 0
-557 562 -564 0
557 -562 -564 0
564 -562 -557 0
557 562 564 0
-4 -564 0
552 -565 -566 0
565 -552 -566 0
-552 -565 566 0
552 565 566 0
-1 -566 0
-12 565 -567 0
12 -565 -567 0
567 -565 -12 0
567 565 12 0
-2 567 0
-5 568 0
-12 568 0
-552 568 0
5 12 552 -568 0
565 -568 -569 0
-565 568 -569 0
-565 -568 569 0
565 568 569 0
-3 569 0
5 570 0
12 570 0
552 570 0
-5 -12 -552 -570 0
-565 570 -571 0
565 -570 -571 0
571 -570 -565 0
565 570 571 0
-4 -571 0
572 -573 -574 0
573 -572 -574 0
-572 -573 574 0
573 572 574 0
-1 -574 0
-94 573 -575 0
94 -573 -575 0
575 -573 -94 0
575 573 94 0
-2 575 0
-94 576 0
-95 576 0
-96 576 0
-97 576 0
-98 576 0
-572 576 0
577 0
573 -576 -578 0
-573 576 -578 0
-573 -576 578 0
573 576 578 0
-3 578 0
94 579 0
95 579 0
96 579 0
97 579 0
98 579 0
572 579 0
-580 0
-573 579 -581 0
573 -579 -581 0
581 -579 -573 0
573 579 581 0
-4 -581 0
582 -583 -584 0
583 -582 -584 0
-582 -583 584 0
583 582 584 0
-1 -584 0
583 -585 -586 0
585 -583 -586 0
586 -583 -585 0
586 583 585 0
-2 586 0
-95 587 0
-96 587 0
-97 587 0
-98 587 0
-153 587 0
-156 587 0
-582 587 0
-585 587 0
-588 587 0
-589 587 0
-590 587 0
-591 587 0
-592 587 0
-593 587 0
594 0
583 -587 -595 0
-583 587 -595 0
-583 -587 595 0
583 587 595 0
-3 595 0
95 596 0
96 596 0
97 596 0
98 596 0
153 596 0
156 596 0
582 596 0
585 596 0
588 596 0
589 596 0
590 596 0
591 596 0
592 596 0
593 596 0
-597 0
-583 596 -598 0
583 -596 -598 0
598 -596 -583 0
583 596 598 0
-4 -598 0
585 -599 -600 0
599 -585 -600 0
-585 -599 600 0
585 599 600 0
-1 -600 0
599 -588 -601 0
588 -599 -601 0
601 -599 -588 0
601 599 588 0
-2 601 0
-95 602 0
-96 602 0
-97 602 0
-98 602 0
-153 602 0
-156 602 0
-585 602 0
-588 602 0
-589 602 0
-590 602 0
-591 602 0
-592 602 0
-593 602 0
603 0
599 -602 -604 0
-599 602 -604 0
-599 -602 604 0
599 602 604 0
-3 604 0
95 605 0
96 605 0
97 605 0
98 605 0
153 605 0
156 605 0
585 605 0
588 605 0
589 605 0
590 605 0
591 605 0
592 605 0
593 605 0
-606 0
-599 605 -607 0
599 -605 -607 0
607 -605 -599 0
599 605 607 0
-4 -607 0
588 -608 -609 0
608 -588 -609 0
-588 -608 609 0
588 608 609 0
-1 -609 0
608 -589 -610 0
589 -608 -610 0
610 -608 -589 0
610 608 589 0
-2 610 0
-95 611 0
-96 611 0
-97 611 0
-98 611 0
-153 611 0
-156 611 0
-588 611 0
-589 611 0
-590 611 0
-591 611 0
-592 611 0
-593 611 0
612 0
608 -611 -613 0
-608 611 -613 0
-608 -611 613 0
608 611 613 0
-3 613 0
95 614 0
96 614 0
97 614 0
98 614 0
153 614 0
156 614 0
588 614 0
589 614 0
590 614 0
591 614 0
592 614 0
593 614 0
-615 0
-608 614 -616 0
608 -614 -616 0
616 -614 -608 0
608 614 616 0
-4 -616 0
589 -617 -618 0
617 -589 -618 0
-589 -617 618 0
589 617 618 0
-1 -618 0
617 -590 -619 0
590 -617 -619 0
619 -617 -590 0
619 617 590 0
-2 619 0
-95 620 0
-96 620 0
-97 620 0
-98 620 0
-153 620 0
-156 620 0
-589 620 0
-590 620 0
-591 620 0
-592 620 0
-593 620 0
621 0
617 -620 -622 0
-617 620 -622 0
-617 -620 622 0
617 620 622 0
-3 622 0
95 623 0
96 623 0
97 623 0
98 623 0
153 623 0
156 623 0
589 623 0
590 623 0
591 623 0
592 623 0
593 623 0
-624 0
-617 623 -625 0
617 -623 -625 0
625 -623 -617 0
617 623 625 0
-4 -625 0
590 -626 -627 0
626 -590 -627 0
-590 -626 627 0
590 626 627 0
-1 -627 0
626 -591 -628 0
591 -626 -628 0
628 -626 -591 0
628 626 591 0
-2 628 0
-95 629 0
-96 629 0
-97 629 0
-98 629 0
-153 629 0
-156 629 0
-590 629 0
-591 629 0
-592 629 0
-593 629 0
630 0
626 -629 -631 0
-626 629 -631 0
-626 -629 631 0
626 629 631 0
-3 631 0
95 632 0
96 632 0
97 632 0
98 632 0
153 632 0
156 632 0
590 632 0
591 632 0
592 632 0
593 632 0
-633 0
-626 632 -634 0
626 -632 -634 0
634 -632 -626 0
626 632 634 0
-4 -634 0
591 -635 -636 0
635 -591 -636 0
-591 -635 636 0
591 635 636 0
-1 -636 0
635 -592 -637 0
592 -635 -637 0
637 -635 -592 0
637 635 592 0
-2 637 0
-95 638 0
-96 638 0
-97 638 0
-98 638 0
-153 638 0
-156 638 0
-591 638 0
-592 638 0
-593 638 0
639 0
635 -638 -640 0
-635 638 -640 0
-635 -638 640 0
635 638 640 0
-3 640 0
95 641 0
96 641 0
97 641 0
98 641 0
153 641 0
156 641 0
591 641 0
592 641 0
593 641 0
-642 0
-635 641 -643 0
635 -641 -643 0
643 -641 -635 0
635 641 643 0
-4 -643 0
592 -644 -645 0
644 -592 -645 0
-592 -644 645 0
592 644 645 0
-1 -645 0
644 -593 -646 0
593 -644 -646 0
646 -644 -593 0
646 644 593 0
-2 646 0
-95 647 0
-96 647 0
-97 647 0
-98 647 0
-153 647 0
-156 647 0
-592 647 0
-593 647 0
648 0
644 -647 -649 0
-644 647 -649 0
-644 -647 649 0
644 647 649 0
-3 649 0
95 650 0
96 650 0
97 650 0
98 650 0
153 650 0
156 650 0
592 650 0
593 650 0
-651 0
-644 650 -652 0
644 -650 -652 0
652 -650 -644 0
644 650 652 0
-4 -652 0
593 -653 -654 0
653 -593 -654 0
-593 -653 654 0
593 653 654 0
-1 -654 0
-153 653 -655 0
153 -653 -655 0
655 -653 -153 0
655 653 153 0
-2 655 0
-95 656 0
-96 656 0
-97 656 0
-98 656 0
-153 656 0
-156 656 0
-593 656 0
657 0
653 -656 -658 0
-653 656 -658 0
-653 -656 658 0
653 656 658 0
-3 658 0
95 659 0
96 659 0
97 659 0
98 659 0
153 659 0
156 659 0
593 659 0
-660 0
-653 659 -661 0
653 -659 -661 0
661 -659 -653 0
653 659 661 0
-4 -661 0
662 -663 -664 0
663 -662 -664 0
-662 -663 664 0
663 662 664 0
-1 -664 0
663 -665 -666 0
665 -663 -666 0
666 -663 -665 0
666 663 665 0
-2 666 0
-178 667 0
-179 667 0
-180 667 0
-181 667 0
-182 667 0
-662 667 0
-665 667 0
-668 667 0
669 0
663 -667 -670 0
-663 667 -670 0
-663 -667 670 0
663 667 670 0
-3 670 0
178 671 0
179 671 0
180 671 0
181 671 0
182 671 0
662 671 0
665 671 0
668 671 0
-672 0
-663 671 -673 0
663 -671 -673 0
673 -671 -663 0
663 671 673 0
-4 -673 0
665 -674 -675 0
674 -665 -675 0
-665 -674 675 0
665 674 675 0
-1 -675 0
674 -668 -676 0
668 -674 -676 0
676 -674 -668 0
676 674 668 0
-2 676 0
-178 677 0
-179 677 0
-180 677 0
-181 677 0
-182 677 0
-665 677 0
-668 677 0
678 0
674 -677 -679 0
-674 677 -679 0
-674 -677 679 0
674 677 679 0
-3 679 0
178 680 0
179 680 0
180 680 0
181 680 0
182 680 0
665 680 0
668 680 0
-681 0
-674 680 -682 0
674 -680 -682 0
682 -680 -674 0
674 680 682 0
-4 -682 0
668 -683 -684 0
683 -668 -684 0
-668 -683 684 0
668 683 684 0
-1 -684 0
-178 683 -685 0
178 -683 -685 0
685 -683 -178 0
685 683 178 0
-2 685 0
-178 686 0
-179 686 0
-180 686 0
-181 686 0
-182 686 0
-668 686 0
687 0
683 -686 -688 0
-683 686 -688 0
-683 -686 688 0
683 686 688 0
-3 688 0
178 689 0
179 689 0
180 689 0
181 689 0
182 689 0
668 689 0
-690 0
-683 689 -691 0
683 -689 -691 0
691 -689 -683 0
683 689 691 0
-4 -691 0
692 -693 -694 0
693 -692 -694 0
-692 -693 694 0
693 692 694 0
-1 -694 0
693 -695 -696 0
695 -693 -696 0
696 -693 -695 0
696 693 695 0
-2 696 0
-95 697 0
-96 697 0
-97 697 0
-98 697 0
-153 697 0
-156 697 0
-591 697 0
-592 697 0
-593 697 0
-692 697 0
-695 697 0
-698 697 0
699 0
693 -697 -700 0
-693 697 -700 0
-693 -697 700 0
693 697 700 0
-3 700 0
95 701 0
96 701 0
97 701 0
98 701 0
153 701 0
156 701 0
591 701 0
592 701 0
593 701 0
692 701 0
695 701 0
698 701 0
-702 0
-693 701 -703 0
693 -701 -703 0
703 -701 -693 0
693 701 703 0
-4 -703 0
695 -704 -705 0
704 -695 -705 0
-695 -704 705 0
695 704 705 0
-1 -705 0
704 -698 -706 0
698 -704 -706 0
706 -704 -698 0
706 704 698 0
-2 706 0
-95 707 0
-96 707 0
-97 707 0
-98 707 0
-153 707 0
-156 707 0
-591 707 0
-592 707 0
-593 707 0
-695 707 0
-698 707 0
708 0
704 -707 -709 0
-704 707 -709 0
-704 -707 709 0
704 707 709 0
-3 709 0
95 710 0
96 710 0
97 710 0
98 710 0
153 710 0
156 710 0
591 710 0
592 710 0
593 710 0
695 710 0
698 710 0
-711 0
-704 710 -712 0
704 -710 -712 0
712 -710 -704 0
704 710 712 0
-4 -712 0
698 -713 -714 0
713 -698 -714 0
-698 -713 714 0
698 713 714 0
-1 -714 0
-591 713 -715 0
591 -713 -715 0
715 -713 -591 0
715 713 591 0
-2 715 0
-95 716 0
-96 716 0
-97 716 0
-98 716 0
-153 716 0
-156 716 0
-591 716 0
-592 716 0
-593 716 0
-698 716 0
717 0
713 -716 -718 0
-713 716 -718 0
-713 -716 718 0
713 716 718 0
-3 718 0
95 719 0
96 719 0
97 719 0
98 719 0
153 719 0
156 719 0
591 719 0
592 719 0
593 719 0
698 719 0
-720 0
-713 719 -721 0
713 -719 -721 0
721 -719 -713 0
713 719 721 0
-4 -721 0
722 -723 -724 0
723 -722 -724 0
-722 -723 724 0
723 722 724 0
-1 -724 0
-552 723 -725 0
552 -723 -725 0
725 -723 -552 0
725 723 552 0
-2 725 0
-5 726 0
-12 726 0
-552 726 0
-722 726 0
5 12 552 722 -726 0
723 -726 -727 0
-723 726 -727 0
-723 -726 727 0
723 726 727 0
-3 727 0
5 728 0
12 728 0
552 728 0
722 728 0
-729 0
-723 728 -730 0
723 -728 -730 0
730 -728 -723 0
723 728 730 0
-4 -730 0
731 -732 -733 0
732 -731 -733 0
-731 -732 733 0
732 731 733 0
-1 -733 0
732 -734 -735 0
734 -732 -735 0
735 -732 -734 0
735 732 734 0
-2 735 0
-25 736 0
-28 736 0
-31 736 0
-476 736 0
-731 736 0
-734 736 0
25 28 31 476 731 734 -736 0
732 -736 -737 0
-732 736 -737 0
-732 -736 737 0
732 736 737 0
-3 737 0
25 738 0
28 738 0
31 738 0
476 738 0
731 738 0
734 738 0
-739 0
-732 738 -740 0
732 -738 -740 0
740 -738 -732 0
732 738 740 0
-4 -740 0
734 -741 -742 0
741 -734 -742 0
-734 -741 742 0
734 741 742 0
-1 -742 0
-476 741 -743 0
476 -741 -743 0
743 -741 -476 0
743 741 476 0
-2 743 0
-25 744 0
-28 744 0
-31 744 0
-476 744 0
-734 744 0
25 28 31 476 734 -744 0
741 -744 -745 0
-741 744 -745 0
-741 -744 745 0
741 744 745 0
-3 745 0
25 746 0
28 746 0
31 746 0
476 746 0
734 746 0
-747 0
-741 746 -748 0
741 -746 -748 0
748 -746 -741 0
741 746 748 0
-4 -748 0
5 0
9 0
-12 0
25 0
28 0
-31 0
-45 0
-54 0
-57 0
-60 0
61 0
-87 0
-90 0
-93 0
-94 0
-95 0
-96 0
-97 0
98 0
-153 0
156 0
-172 0
175 0
-178 0
-179 0
-180 0
181 0
182 0
228 0
-231 0
240 0
250 0
-253 0
-267 0
270 0
-286 0
295 0
304 0
307 0
-324 0
-327 0
-330 0
352 0
361 0
364 0
-367 0
368 0
-369 0
370 0
-371 0
-419 0
422 0
437 0
-440 0
455 0
458 0
473 0
-476 0
-491 0
-500 0
509 0
518 0
527 0
-530 0
-546 0
-549 0
-552 0
572 0
-582 0
585 0
-588 0
-589 0
-590 0
591 0
592 0
593 0
662 0
-665 0
-668 0
-692 0
695 0
698 0
722 0
-731 0
-734 0
6 0
-10 0
-26 0
-46 0
-55 0
-73 0
-80 0
-88 0
-154 0
-173 0
-229 0
-237 0
-241 0
-251 0
-260 0
-268 0
-287 0
-296 0
-305 0
-325 0
-336 0
-353 0
-362 0
-420 0
-438 0
-456 0
-465 0
-474 0
-492 0
-501 0
-510 0
-519 0
-528 0
-547 0
-573 0
-583 0
-663 0
-693 0
-723 0
-732 0
